StudentsNr = 10;
InstructorsNr = 80;
DaysNr = 1;
SlotsPerDay = 40;
AvailabilitySlotsLenght = 10;
RoomNr = 1;
ProgrammNr = 1;
DegreeNr = 2;
RolesNr = 4;
CoursesNr = 8;
InstructorsProgramm = [{1}, {1}, {1}, {1}, {1}, {1}, {1}, {1}, {1}, {1}, {1}, {1}, {1}, {1}, {1}, {1}, {1}, {1}, {1}, {1}, {1}, {1}, {1}, {1}, {1}, {1}, {1}, {1}, {1}, {1}, {1}, {1}, {1}, {1}, {1}, {1}, {1}, {1}, {1}, {1}, {1}, {1}, {1}, {1}, {1}, {1}, {1}, {1}, {1}, {1}, {1}, {1}, {1}, {1}, {1}, {1}, {1}, {1}, {1}, {1}, {1}, {1}, {1}, {1}, {1}, {1}, {1}, {1}, {1}, {1}, {1}, {1}, {1}, {1}, {1}, {1}, {1}, {1}, {1}, {1}];
InstructorRolesPerProgramm = [|{1, 3, 5, 6, 8, 10, 14, 17, 20, 23, 28, 29, 30, 32, 35, 42, 43, 46, 47, 48, 49, 50, 54, 56, 57, 58, 63, 66, 75, 79, 80}, {3, 7, 8, 9, 16, 17, 22, 23, 24, 25, 27, 28, 29, 30, 31, 34, 35, 38, 43, 48, 51, 52, 54, 55, 61, 62, 63, 64, 66, 69, 73, 74, 75, 76, 77, 79}, {7, 13, 16, 17, 18, 19, 20, 21, 26, 30, 34, 36, 38, 42, 48, 52, 57, 58, 61, 62, 64, 69, 70, 72, 75, 78, 80}, {3, 5, 6, 7, 8, 9, 10, 13, 14, 16, 17, 18, 19, 21, 25, 26, 27, 30, 31, 32, 35, 37, 38, 40, 42, 43, 46, 49, 51, 54, 55, 58, 62, 64, 66, 69, 75, 76, 77}|];
InstructorsAvailability = [|1, 1, 1, 1, |1, 1, 1, 1, |1, 1, 0, 0, |0, 1, 1, 1, |1, 1, 1, 0, |1, 1, 1, 1, |1, 1, 1, 1, |0, 0, 0, 0, |1, 1, 1, 1, |1, 1, 1, 1, |0, 1, 1, 1, |0, 0, 1, 1, |0, 1, 1, 1, |0, 1, 1, 1, |1, 1, 1, 1, |0, 1, 0, 1, |0, 1, 1, 1, |1, 1, 1, 1, |0, 1, 1, 1, |0, 1, 0, 1, |0, 1, 1, 1, |0, 0, 1, 1, |0, 1, 0, 1, |0, 1, 1, 1, |1, 1, 0, 1, |0, 0, 0, 1, |1, 1, 1, 1, |1, 1, 1, 1, |0, 1, 1, 0, |1, 1, 1, 1, |0, 1, 1, 1, |0, 1, 1, 1, |0, 1, 1, 1, |1, 1, 1, 1, |0, 0, 0, 1, |1, 1, 1, 1, |0, 1, 1, 1, |1, 1, 1, 1, |0, 1, 0, 1, |0, 1, 0, 0, |1, 1, 1, 1, |0, 0, 0, 0, |0, 1, 0, 1, |1, 1, 1, 1, |1, 1, 0, 1, |1, 1, 1, 0, |1, 1, 1, 0, |1, 1, 1, 1, |1, 0, 0, 1, |0, 1, 1, 1, |0, 0, 1, 1, |0, 0, 0, 1, |1, 1, 0, 0, |1, 1, 1, 1, |0, 0, 0, 1, |0, 0, 1, 1, |0, 1, 1, 1, |0, 1, 1, 1, |1, 1, 1, 1, |0, 1, 1, 1, |0, 1, 1, 1, |1, 0, 1, 1, |0, 0, 1, 0, |0, 1, 1, 0, |1, 0, 0, 0, |1, 1, 1, 1, |0, 0, 0, 1, |0, 1, 1, 1, |0, 0, 0, 1, |0, 0, 1, 1, |0, 1, 0, 1, |1, 1, 1, 1, |1, 1, 1, 1, |0, 0, 1, 1, |0, 1, 1, 0, |0, 0, 0, 1, |0, 1, 1, 1, |1, 1, 1, 1, |1, 1, 1, 0, |1, 1, 1, 1|];
StudentsProgramm = [1, 1, 1, 1, 1, 1, 1, 1, 1, 1];
StudentsDegree = [2, 2, 1, 1, 1, 2, 2, 2, 1, 2];
StudentsSupervisorId = [23, 57, 78, 5, 36, 67, 11, 42, 21, 43];
StudentsCourseIds = [{1, 2, 3, 4, 5, 6, 7, 8}, {1, 2, 3, 4, 5, 6, 7, 8}, {}, {}, {}, {1, 2, 3, 4, 5, 6, 7, 8}, {1, 2, 3, 4, 5, 6, 7, 8}, {1, 2, 3, 4, 5, 6, 7, 8}, {}, {1, 2, 3, 4, 5, 6, 7, 8}];
StudentsAvailability = [|0, 0, 0, 1, |1, 1, 1, 1, |0, 0, 1, 0, |0, 0, 0, 0, |0, 0, 1, 1, |0, 1, 0, 0, |1, 1, 1, 1, |1, 1, 1, 1, |0, 0, 1, 1, |1, 1, 1, 1|];
TheoryticalMinCard = [0, 0, 0, 0, 0, 0, 0, 0, 0, 0];
CoursesInstructorIds = [{3, 6, 7, 9, 14, 16, 20, 27, 29, 30, 31, 35, 36, 38, 43, 65, 68}, {6, 7, 9, 13, 14, 15, 16, 18, 21, 22, 24, 26, 27, 28, 31, 34, 36, 38, 39, 41, 42, 45, 46, 50, 51, 55, 56, 57, 59, 60, 65, 67, 69, 71, 73, 75, 78, 79, 80}, {2, 4, 12, 15, 16, 21, 22, 23, 24, 34, 36, 37, 43, 47, 49, 50, 52, 56, 60, 61, 68, 73}, {3, 4, 5, 6, 9, 10, 14, 15, 17, 18, 19, 21, 22, 24, 25, 26, 27, 29, 30, 32, 35, 37, 38, 39, 40, 42, 45, 47, 48, 50, 51, 52, 53, 55, 56, 59, 61, 62, 63, 64, 66, 68, 69, 70, 72, 73, 75, 76, 78, 79}, {1, 2, 4, 5, 6, 10, 11, 13, 16, 19, 21, 22, 26, 27, 28, 29, 30, 32, 34, 36, 38, 40, 44, 45, 48, 49, 51, 61, 62, 65, 69, 72, 73, 75, 78}, {3, 4, 5, 6, 7, 8, 9, 10, 11, 13, 16, 18, 20, 23, 24, 27, 28, 29, 30, 33, 34, 35, 38, 46, 47, 48, 49, 50, 51, 53, 54, 56, 57, 58, 62, 64, 65, 67, 68, 69, 73, 74, 76, 77, 78, 79, 80}, {10, 12, 14, 15, 21, 28, 42, 45, 47, 54, 55, 56, 71}, {1, 2, 5, 24, 39, 41, 45, 56, 60, 61, 62, 66}];
RolesDemands = [7, 31, 25, 32];
RolesContinuity = [3, 1];
ExamLen = [1, 1, 2, 2, 2, 1, 1, 1, 2, 1];
LunchTsMinLen = 1;
LunchStarts = [20..27];
SupervisorAvailable = 0;
OptimalLunchLenght = [2, 1];
OptimalStartTs = [0, 0];
OptimalFinishTs = [2, 40];
MinimizeRooms = 100;
RolesSoftContinuity = [|1, 2, 3, 4|3, 4, 1, 3|];
SameDegreeInRoom = 10;
Mergeability = 2;
